p cnf 231 2541
1 12 23 34 45 56 67 78 89 100 111 0
2 13 24 35 46 57 68 79 90 101 112 0
3 14 25 36 47 58 69 80 91 102 113 0
4 15 26 37 48 59 70 81 92 103 114 0
5 16 27 38 49 60 71 82 93 104 115 0
6 17 28 39 50 61 72 83 94 105 116 0
7 18 29 40 51 62 73 84 95 106 117 0
8 19 30 41 52 63 74 85 96 107 118 0
9 20 31 42 53 64 75 86 97 108 119 0
10 21 32 43 54 65 76 87 98 109 120 0
11 22 33 44 55 66 77 88 99 110 121 0
-1 -2 0
-1 -3 0
-1 -4 0
-1 -5 0
-1 -6 0
-1 -7 0
-1 -8 0
-1 -9 0
-1 -10 0
-1 -11 0
-2 -1 0
-2 -3 0
-2 -4 0
-2 -5 0
-2 -6 0
-2 -7 0
-2 -8 0
-2 -9 0
-2 -10 0
-2 -11 0
-3 -1 0
-3 -2 0
-3 -4 0
-3 -5 0
-3 -6 0
-3 -7 0
-3 -8 0
-3 -9 0
-3 -10 0
-3 -11 0
-4 -1 0
-4 -2 0
-4 -3 0
-4 -5 0
-4 -6 0
-4 -7 0
-4 -8 0
-4 -9 0
-4 -10 0
-4 -11 0
-5 -1 0
-5 -2 0
-5 -3 0
-5 -4 0
-5 -6 0
-5 -7 0
-5 -8 0
-5 -9 0
-5 -10 0
-5 -11 0
-6 -1 0
-6 -2 0
-6 -3 0
-6 -4 0
-6 -5 0
-6 -7 0
-6 -8 0
-6 -9 0
-6 -10 0
-6 -11 0
-7 -1 0
-7 -2 0
-7 -3 0
-7 -4 0
-7 -5 0
-7 -6 0
-7 -8 0
-7 -9 0
-7 -10 0
-7 -11 0
-8 -1 0
-8 -2 0
-8 -3 0
-8 -4 0
-8 -5 0
-8 -6 0
-8 -7 0
-8 -9 0
-8 -10 0
-8 -11 0
-9 -1 0
-9 -2 0
-9 -3 0
-9 -4 0
-9 -5 0
-9 -6 0
-9 -7 0
-9 -8 0
-9 -10 0
-9 -11 0
-10 -1 0
-10 -2 0
-10 -3 0
-10 -4 0
-10 -5 0
-10 -6 0
-10 -7 0
-10 -8 0
-10 -9 0
-10 -11 0
-11 -1 0
-11 -2 0
-11 -3 0
-11 -4 0
-11 -5 0
-11 -6 0
-11 -7 0
-11 -8 0
-11 -9 0
-11 -10 0
-12 -13 0
-12 -14 0
-12 -15 0
-12 -16 0
-12 -17 0
-12 -18 0
-12 -19 0
-12 -20 0
-12 -21 0
-12 -22 0
-13 -12 0
-13 -14 0
-13 -15 0
-13 -16 0
-13 -17 0
-13 -18 0
-13 -19 0
-13 -20 0
-13 -21 0
-13 -22 0
-14 -12 0
-14 -13 0
-14 -15 0
-14 -16 0
-14 -17 0
-14 -18 0
-14 -19 0
-14 -20 0
-14 -21 0
-14 -22 0
-15 -12 0
-15 -13 0
-15 -14 0
-15 -16 0
-15 -17 0
-15 -18 0
-15 -19 0
-15 -20 0
-15 -21 0
-15 -22 0
-16 -12 0
-16 -13 0
-16 -14 0
-16 -15 0
-16 -17 0
-16 -18 0
-16 -19 0
-16 -20 0
-16 -21 0
-16 -22 0
-17 -12 0
-17 -13 0
-17 -14 0
-17 -15 0
-17 -16 0
-17 -18 0
-17 -19 0
-17 -20 0
-17 -21 0
-17 -22 0
-18 -12 0
-18 -13 0
-18 -14 0
-18 -15 0
-18 -16 0
-18 -17 0
-18 -19 0
-18 -20 0
-18 -21 0
-18 -22 0
-19 -12 0
-19 -13 0
-19 -14 0
-19 -15 0
-19 -16 0
-19 -17 0
-19 -18 0
-19 -20 0
-19 -21 0
-19 -22 0
-20 -12 0
-20 -13 0
-20 -14 0
-20 -15 0
-20 -16 0
-20 -17 0
-20 -18 0
-20 -19 0
-20 -21 0
-20 -22 0
-21 -12 0
-21 -13 0
-21 -14 0
-21 -15 0
-21 -16 0
-21 -17 0
-21 -18 0
-21 -19 0
-21 -20 0
-21 -22 0
-22 -12 0
-22 -13 0
-22 -14 0
-22 -15 0
-22 -16 0
-22 -17 0
-22 -18 0
-22 -19 0
-22 -20 0
-22 -21 0
-23 -24 0
-23 -25 0
-23 -26 0
-23 -27 0
-23 -28 0
-23 -29 0
-23 -30 0
-23 -31 0
-23 -32 0
-23 -33 0
-24 -23 0
-24 -25 0
-24 -26 0
-24 -27 0
-24 -28 0
-24 -29 0
-24 -30 0
-24 -31 0
-24 -32 0
-24 -33 0
-25 -23 0
-25 -24 0
-25 -26 0
-25 -27 0
-25 -28 0
-25 -29 0
-25 -30 0
-25 -31 0
-25 -32 0
-25 -33 0
-26 -23 0
-26 -24 0
-26 -25 0
-26 -27 0
-26 -28 0
-26 -29 0
-26 -30 0
-26 -31 0
-26 -32 0
-26 -33 0
-27 -23 0
-27 -24 0
-27 -25 0
-27 -26 0
-27 -28 0
-27 -29 0
-27 -30 0
-27 -31 0
-27 -32 0
-27 -33 0
-28 -23 0
-28 -24 0
-28 -25 0
-28 -26 0
-28 -27 0
-28 -29 0
-28 -30 0
-28 -31 0
-28 -32 0
-28 -33 0
-29 -23 0
-29 -24 0
-29 -25 0
-29 -26 0
-29 -27 0
-29 -28 0
-29 -30 0
-29 -31 0
-29 -32 0
-29 -33 0
-30 -23 0
-30 -24 0
-30 -25 0
-30 -26 0
-30 -27 0
-30 -28 0
-30 -29 0
-30 -31 0
-30 -32 0
-30 -33 0
-31 -23 0
-31 -24 0
-31 -25 0
-31 -26 0
-31 -27 0
-31 -28 0
-31 -29 0
-31 -30 0
-31 -32 0
-31 -33 0
-32 -23 0
-32 -24 0
-32 -25 0
-32 -26 0
-32 -27 0
-32 -28 0
-32 -29 0
-32 -30 0
-32 -31 0
-32 -33 0
-33 -23 0
-33 -24 0
-33 -25 0
-33 -26 0
-33 -27 0
-33 -28 0
-33 -29 0
-33 -30 0
-33 -31 0
-33 -32 0
-34 -35 0
-34 -36 0
-34 -37 0
-34 -38 0
-34 -39 0
-34 -40 0
-34 -41 0
-34 -42 0
-34 -43 0
-34 -44 0
-35 -34 0
-35 -36 0
-35 -37 0
-35 -38 0
-35 -39 0
-35 -40 0
-35 -41 0
-35 -42 0
-35 -43 0
-35 -44 0
-36 -34 0
-36 -35 0
-36 -37 0
-36 -38 0
-36 -39 0
-36 -40 0
-36 -41 0
-36 -42 0
-36 -43 0
-36 -44 0
-37 -34 0
-37 -35 0
-37 -36 0
-37 -38 0
-37 -39 0
-37 -40 0
-37 -41 0
-37 -42 0
-37 -43 0
-37 -44 0
-38 -34 0
-38 -35 0
-38 -36 0
-38 -37 0
-38 -39 0
-38 -40 0
-38 -41 0
-38 -42 0
-38 -43 0
-38 -44 0
-39 -34 0
-39 -35 0
-39 -36 0
-39 -37 0
-39 -38 0
-39 -40 0
-39 -41 0
-39 -42 0
-39 -43 0
-39 -44 0
-40 -34 0
-40 -35 0
-40 -36 0
-40 -37 0
-40 -38 0
-40 -39 0
-40 -41 0
-40 -42 0
-40 -43 0
-40 -44 0
-41 -34 0
-41 -35 0
-41 -36 0
-41 -37 0
-41 -38 0
-41 -39 0
-41 -40 0
-41 -42 0
-41 -43 0
-41 -44 0
-42 -34 0
-42 -35 0
-42 -36 0
-42 -37 0
-42 -38 0
-42 -39 0
-42 -40 0
-42 -41 0
-42 -43 0
-42 -44 0
-43 -34 0
-43 -35 0
-43 -36 0
-43 -37 0
-43 -38 0
-43 -39 0
-43 -40 0
-43 -41 0
-43 -42 0
-43 -44 0
-44 -34 0
-44 -35 0
-44 -36 0
-44 -37 0
-44 -38 0
-44 -39 0
-44 -40 0
-44 -41 0
-44 -42 0
-44 -43 0
-45 -46 0
-45 -47 0
-45 -48 0
-45 -49 0
-45 -50 0
-45 -51 0
-45 -52 0
-45 -53 0
-45 -54 0
-45 -55 0
-46 -45 0
-46 -47 0
-46 -48 0
-46 -49 0
-46 -50 0
-46 -51 0
-46 -52 0
-46 -53 0
-46 -54 0
-46 -55 0
-47 -45 0
-47 -46 0
-47 -48 0
-47 -49 0
-47 -50 0
-47 -51 0
-47 -52 0
-47 -53 0
-47 -54 0
-47 -55 0
-48 -45 0
-48 -46 0
-48 -47 0
-48 -49 0
-48 -50 0
-48 -51 0
-48 -52 0
-48 -53 0
-48 -54 0
-48 -55 0
-49 -45 0
-49 -46 0
-49 -47 0
-49 -48 0
-49 -50 0
-49 -51 0
-49 -52 0
-49 -53 0
-49 -54 0
-49 -55 0
-50 -45 0
-50 -46 0
-50 -47 0
-50 -48 0
-50 -49 0
-50 -51 0
-50 -52 0
-50 -53 0
-50 -54 0
-50 -55 0
-51 -45 0
-51 -46 0
-51 -47 0
-51 -48 0
-51 -49 0
-51 -50 0
-51 -52 0
-51 -53 0
-51 -54 0
-51 -55 0
-52 -45 0
-52 -46 0
-52 -47 0
-52 -48 0
-52 -49 0
-52 -50 0
-52 -51 0
-52 -53 0
-52 -54 0
-52 -55 0
-53 -45 0
-53 -46 0
-53 -47 0
-53 -48 0
-53 -49 0
-53 -50 0
-53 -51 0
-53 -52 0
-53 -54 0
-53 -55 0
-54 -45 0
-54 -46 0
-54 -47 0
-54 -48 0
-54 -49 0
-54 -50 0
-54 -51 0
-54 -52 0
-54 -53 0
-54 -55 0
-55 -45 0
-55 -46 0
-55 -47 0
-55 -48 0
-55 -49 0
-55 -50 0
-55 -51 0
-55 -52 0
-55 -53 0
-55 -54 0
-56 -57 0
-56 -58 0
-56 -59 0
-56 -60 0
-56 -61 0
-56 -62 0
-56 -63 0
-56 -64 0
-56 -65 0
-56 -66 0
-57 -56 0
-57 -58 0
-57 -59 0
-57 -60 0
-57 -61 0
-57 -62 0
-57 -63 0
-57 -64 0
-57 -65 0
-57 -66 0
-58 -56 0
-58 -57 0
-58 -59 0
-58 -60 0
-58 -61 0
-58 -62 0
-58 -63 0
-58 -64 0
-58 -65 0
-58 -66 0
-59 -56 0
-59 -57 0
-59 -58 0
-59 -60 0
-59 -61 0
-59 -62 0
-59 -63 0
-59 -64 0
-59 -65 0
-59 -66 0
-60 -56 0
-60 -57 0
-60 -58 0
-60 -59 0
-60 -61 0
-60 -62 0
-60 -63 0
-60 -64 0
-60 -65 0
-60 -66 0
-61 -56 0
-61 -57 0
-61 -58 0
-61 -59 0
-61 -60 0
-61 -62 0
-61 -63 0
-61 -64 0
-61 -65 0
-61 -66 0
-62 -56 0
-62 -57 0
-62 -58 0
-62 -59 0
-62 -60 0
-62 -61 0
-62 -63 0
-62 -64 0
-62 -65 0
-62 -66 0
-63 -56 0
-63 -57 0
-63 -58 0
-63 -59 0
-63 -60 0
-63 -61 0
-63 -62 0
-63 -64 0
-63 -65 0
-63 -66 0
-64 -56 0
-64 -57 0
-64 -58 0
-64 -59 0
-64 -60 0
-64 -61 0
-64 -62 0
-64 -63 0
-64 -65 0
-64 -66 0
-65 -56 0
-65 -57 0
-65 -58 0
-65 -59 0
-65 -60 0
-65 -61 0
-65 -62 0
-65 -63 0
-65 -64 0
-65 -66 0
-66 -56 0
-66 -57 0
-66 -58 0
-66 -59 0
-66 -60 0
-66 -61 0
-66 -62 0
-66 -63 0
-66 -64 0
-66 -65 0
-67 -68 0
-67 -69 0
-67 -70 0
-67 -71 0
-67 -72 0
-67 -73 0
-67 -74 0
-67 -75 0
-67 -76 0
-67 -77 0
-68 -67 0
-68 -69 0
-68 -70 0
-68 -71 0
-68 -72 0
-68 -73 0
-68 -74 0
-68 -75 0
-68 -76 0
-68 -77 0
-69 -67 0
-69 -68 0
-69 -70 0
-69 -71 0
-69 -72 0
-69 -73 0
-69 -74 0
-69 -75 0
-69 -76 0
-69 -77 0
-70 -67 0
-70 -68 0
-70 -69 0
-70 -71 0
-70 -72 0
-70 -73 0
-70 -74 0
-70 -75 0
-70 -76 0
-70 -77 0
-71 -67 0
-71 -68 0
-71 -69 0
-71 -70 0
-71 -72 0
-71 -73 0
-71 -74 0
-71 -75 0
-71 -76 0
-71 -77 0
-72 -67 0
-72 -68 0
-72 -69 0
-72 -70 0
-72 -71 0
-72 -73 0
-72 -74 0
-72 -75 0
-72 -76 0
-72 -77 0
-73 -67 0
-73 -68 0
-73 -69 0
-73 -70 0
-73 -71 0
-73 -72 0
-73 -74 0
-73 -75 0
-73 -76 0
-73 -77 0
-74 -67 0
-74 -68 0
-74 -69 0
-74 -70 0
-74 -71 0
-74 -72 0
-74 -73 0
-74 -75 0
-74 -76 0
-74 -77 0
-75 -67 0
-75 -68 0
-75 -69 0
-75 -70 0
-75 -71 0
-75 -72 0
-75 -73 0
-75 -74 0
-75 -76 0
-75 -77 0
-76 -67 0
-76 -68 0
-76 -69 0
-76 -70 0
-76 -71 0
-76 -72 0
-76 -73 0
-76 -74 0
-76 -75 0
-76 -77 0
-77 -67 0
-77 -68 0
-77 -69 0
-77 -70 0
-77 -71 0
-77 -72 0
-77 -73 0
-77 -74 0
-77 -75 0
-77 -76 0
-78 -79 0
-78 -80 0
-78 -81 0
-78 -82 0
-78 -83 0
-78 -84 0
-78 -85 0
-78 -86 0
-78 -87 0
-78 -88 0
-79 -78 0
-79 -80 0
-79 -81 0
-79 -82 0
-79 -83 0
-79 -84 0
-79 -85 0
-79 -86 0
-79 -87 0
-79 -88 0
-80 -78 0
-80 -79 0
-80 -81 0
-80 -82 0
-80 -83 0
-80 -84 0
-80 -85 0
-80 -86 0
-80 -87 0
-80 -88 0
-81 -78 0
-81 -79 0
-81 -80 0
-81 -82 0
-81 -83 0
-81 -84 0
-81 -85 0
-81 -86 0
-81 -87 0
-81 -88 0
-82 -78 0
-82 -79 0
-82 -80 0
-82 -81 0
-82 -83 0
-82 -84 0
-82 -85 0
-82 -86 0
-82 -87 0
-82 -88 0
-83 -78 0
-83 -79 0
-83 -80 0
-83 -81 0
-83 -82 0
-83 -84 0
-83 -85 0
-83 -86 0
-83 -87 0
-83 -88 0
-84 -78 0
-84 -79 0
-84 -80 0
-84 -81 0
-84 -82 0
-84 -83 0
-84 -85 0
-84 -86 0
-84 -87 0
-84 -88 0
-85 -78 0
-85 -79 0
-85 -80 0
-85 -81 0
-85 -82 0
-85 -83 0
-85 -84 0
-85 -86 0
-85 -87 0
-85 -88 0
-86 -78 0
-86 -79 0
-86 -80 0
-86 -81 0
-86 -82 0
-86 -83 0
-86 -84 0
-86 -85 0
-86 -87 0
-86 -88 0
-87 -78 0
-87 -79 0
-87 -80 0
-87 -81 0
-87 -82 0
-87 -83 0
-87 -84 0
-87 -85 0
-87 -86 0
-87 -88 0
-88 -78 0
-88 -79 0
-88 -80 0
-88 -81 0
-88 -82 0
-88 -83 0
-88 -84 0
-88 -85 0
-88 -86 0
-88 -87 0
-89 -90 0
-89 -91 0
-89 -92 0
-89 -93 0
-89 -94 0
-89 -95 0
-89 -96 0
-89 -97 0
-89 -98 0
-89 -99 0
-90 -89 0
-90 -91 0
-90 -92 0
-90 -93 0
-90 -94 0
-90 -95 0
-90 -96 0
-90 -97 0
-90 -98 0
-90 -99 0
-91 -89 0
-91 -90 0
-91 -92 0
-91 -93 0
-91 -94 0
-91 -95 0
-91 -96 0
-91 -97 0
-91 -98 0
-91 -99 0
-92 -89 0
-92 -90 0
-92 -91 0
-92 -93 0
-92 -94 0
-92 -95 0
-92 -96 0
-92 -97 0
-92 -98 0
-92 -99 0
-93 -89 0
-93 -90 0
-93 -91 0
-93 -92 0
-93 -94 0
-93 -95 0
-93 -96 0
-93 -97 0
-93 -98 0
-93 -99 0
-94 -89 0
-94 -90 0
-94 -91 0
-94 -92 0
-94 -93 0
-94 -95 0
-94 -96 0
-94 -97 0
-94 -98 0
-94 -99 0
-95 -89 0
-95 -90 0
-95 -91 0
-95 -92 0
-95 -93 0
-95 -94 0
-95 -96 0
-95 -97 0
-95 -98 0
-95 -99 0
-96 -89 0
-96 -90 0
-96 -91 0
-96 -92 0
-96 -93 0
-96 -94 0
-96 -95 0
-96 -97 0
-96 -98 0
-96 -99 0
-97 -89 0
-97 -90 0
-97 -91 0
-97 -92 0
-97 -93 0
-97 -94 0
-97 -95 0
-97 -96 0
-97 -98 0
-97 -99 0
-98 -89 0
-98 -90 0
-98 -91 0
-98 -92 0
-98 -93 0
-98 -94 0
-98 -95 0
-98 -96 0
-98 -97 0
-98 -99 0
-99 -89 0
-99 -90 0
-99 -91 0
-99 -92 0
-99 -93 0
-99 -94 0
-99 -95 0
-99 -96 0
-99 -97 0
-99 -98 0
-100 -101 0
-100 -102 0
-100 -103 0
-100 -104 0
-100 -105 0
-100 -106 0
-100 -107 0
-100 -108 0
-100 -109 0
-100 -110 0
-101 -100 0
-101 -102 0
-101 -103 0
-101 -104 0
-101 -105 0
-101 -106 0
-101 -107 0
-101 -108 0
-101 -109 0
-101 -110 0
-102 -100 0
-102 -101 0
-102 -103 0
-102 -104 0
-102 -105 0
-102 -106 0
-102 -107 0
-102 -108 0
-102 -109 0
-102 -110 0
-103 -100 0
-103 -101 0
-103 -102 0
-103 -104 0
-103 -105 0
-103 -106 0
-103 -107 0
-103 -108 0
-103 -109 0
-103 -110 0
-104 -100 0
-104 -101 0
-104 -102 0
-104 -103 0
-104 -105 0
-104 -106 0
-104 -107 0
-104 -108 0
-104 -109 0
-104 -110 0
-105 -100 0
-105 -101 0
-105 -102 0
-105 -103 0
-105 -104 0
-105 -106 0
-105 -107 0
-105 -108 0
-105 -109 0
-105 -110 0
-106 -100 0
-106 -101 0
-106 -102 0
-106 -103 0
-106 -104 0
-106 -105 0
-106 -107 0
-106 -108 0
-106 -109 0
-106 -110 0
-107 -100 0
-107 -101 0
-107 -102 0
-107 -103 0
-107 -104 0
-107 -105 0
-107 -106 0
-107 -108 0
-107 -109 0
-107 -110 0
-108 -100 0
-108 -101 0
-108 -102 0
-108 -103 0
-108 -104 0
-108 -105 0
-108 -106 0
-108 -107 0
-108 -109 0
-108 -110 0
-109 -100 0
-109 -101 0
-109 -102 0
-109 -103 0
-109 -104 0
-109 -105 0
-109 -106 0
-109 -107 0
-109 -108 0
-109 -110 0
-110 -100 0
-110 -101 0
-110 -102 0
-110 -103 0
-110 -104 0
-110 -105 0
-110 -106 0
-110 -107 0
-110 -108 0
-110 -109 0
-111 -112 0
-111 -113 0
-111 -114 0
-111 -115 0
-111 -116 0
-111 -117 0
-111 -118 0
-111 -119 0
-111 -120 0
-111 -121 0
-112 -111 0
-112 -113 0
-112 -114 0
-112 -115 0
-112 -116 0
-112 -117 0
-112 -118 0
-112 -119 0
-112 -120 0
-112 -121 0
-113 -111 0
-113 -112 0
-113 -114 0
-113 -115 0
-113 -116 0
-113 -117 0
-113 -118 0
-113 -119 0
-113 -120 0
-113 -121 0
-114 -111 0
-114 -112 0
-114 -113 0
-114 -115 0
-114 -116 0
-114 -117 0
-114 -118 0
-114 -119 0
-114 -120 0
-114 -121 0
-115 -111 0
-115 -112 0
-115 -113 0
-115 -114 0
-115 -116 0
-115 -117 0
-115 -118 0
-115 -119 0
-115 -120 0
-115 -121 0
-116 -111 0
-116 -112 0
-116 -113 0
-116 -114 0
-116 -115 0
-116 -117 0
-116 -118 0
-116 -119 0
-116 -120 0
-116 -121 0
-117 -111 0
-117 -112 0
-117 -113 0
-117 -114 0
-117 -115 0
-117 -116 0
-117 -118 0
-117 -119 0
-117 -120 0
-117 -121 0
-118 -111 0
-118 -112 0
-118 -113 0
-118 -114 0
-118 -115 0
-118 -116 0
-118 -117 0
-118 -119 0
-118 -120 0
-118 -121 0
-119 -111 0
-119 -112 0
-119 -113 0
-119 -114 0
-119 -115 0
-119 -116 0
-119 -117 0
-119 -118 0
-119 -120 0
-119 -121 0
-120 -111 0
-120 -112 0
-120 -113 0
-120 -114 0
-120 -115 0
-120 -116 0
-120 -117 0
-120 -118 0
-120 -119 0
-120 -121 0
-121 -111 0
-121 -112 0
-121 -113 0
-121 -114 0
-121 -115 0
-121 -116 0
-121 -117 0
-121 -118 0
-121 -119 0
-121 -120 0
122 -1 -13 0
122 -2 -14 0
122 -3 -15 0
122 -4 -16 0
122 -5 -17 0
122 -6 -18 0
122 -7 -19 0
122 -8 -20 0
122 -9 -21 0
122 -10 -22 0
122 -11 -12 0
123 -1 -24 0
123 -2 -25 0
123 -3 -26 0
123 -4 -27 0
123 -5 -28 0
123 -6 -29 0
123 -7 -30 0
123 -8 -31 0
123 -9 -32 0
123 -10 -33 0
123 -11 -23 0
124 -1 -35 0
124 -2 -36 0
124 -3 -37 0
124 -4 -38 0
124 -5 -39 0
124 -6 -40 0
124 -7 -41 0
124 -8 -42 0
124 -9 -43 0
124 -10 -44 0
124 -11 -34 0
125 -1 -46 0
125 -2 -47 0
125 -3 -48 0
125 -4 -49 0
125 -5 -50 0
125 -6 -51 0
125 -7 -52 0
125 -8 -53 0
125 -9 -54 0
125 -10 -55 0
125 -11 -45 0
126 -1 -57 0
126 -2 -58 0
126 -3 -59 0
126 -4 -60 0
126 -5 -61 0
126 -6 -62 0
126 -7 -63 0
126 -8 -64 0
126 -9 -65 0
126 -10 -66 0
126 -11 -56 0
127 -1 -68 0
127 -2 -69 0
127 -3 -70 0
127 -4 -71 0
127 -5 -72 0
127 -6 -73 0
127 -7 -74 0
127 -8 -75 0
127 -9 -76 0
127 -10 -77 0
127 -11 -67 0
128 -1 -79 0
128 -2 -80 0
128 -3 -81 0
128 -4 -82 0
128 -5 -83 0
128 -6 -84 0
128 -7 -85 0
128 -8 -86 0
128 -9 -87 0
128 -10 -88 0
128 -11 -78 0
129 -1 -90 0
129 -2 -91 0
129 -3 -92 0
129 -4 -93 0
129 -5 -94 0
129 -6 -95 0
129 -7 -96 0
129 -8 -97 0
129 -9 -98 0
129 -10 -99 0
129 -11 -89 0
130 -1 -101 0
130 -2 -102 0
130 -3 -103 0
130 -4 -104 0
130 -5 -105 0
130 -6 -106 0
130 -7 -107 0
130 -8 -108 0
130 -9 -109 0
130 -10 -110 0
130 -11 -100 0
131 -1 -112 0
131 -2 -113 0
131 -3 -114 0
131 -4 -115 0
131 -5 -116 0
131 -6 -117 0
131 -7 -118 0
131 -8 -119 0
131 -9 -120 0
131 -10 -121 0
131 -11 -111 0
132 -12 -2 0
132 -13 -3 0
132 -14 -4 0
132 -15 -5 0
132 -16 -6 0
132 -17 -7 0
132 -18 -8 0
132 -19 -9 0
132 -20 -10 0
132 -21 -11 0
132 -22 -1 0
133 -12 -24 0
133 -13 -25 0
133 -14 -26 0
133 -15 -27 0
133 -16 -28 0
133 -17 -29 0
133 -18 -30 0
133 -19 -31 0
133 -20 -32 0
133 -21 -33 0
133 -22 -23 0
134 -12 -35 0
134 -13 -36 0
134 -14 -37 0
134 -15 -38 0
134 -16 -39 0
134 -17 -40 0
134 -18 -41 0
134 -19 -42 0
134 -20 -43 0
134 -21 -44 0
134 -22 -34 0
135 -12 -46 0
135 -13 -47 0
135 -14 -48 0
135 -15 -49 0
135 -16 -50 0
135 -17 -51 0
135 -18 -52 0
135 -19 -53 0
135 -20 -54 0
135 -21 -55 0
135 -22 -45 0
136 -12 -57 0
136 -13 -58 0
136 -14 -59 0
136 -15 -60 0
136 -16 -61 0
136 -17 -62 0
136 -18 -63 0
136 -19 -64 0
136 -20 -65 0
136 -21 -66 0
136 -22 -56 0
137 -12 -68 0
137 -13 -69 0
137 -14 -70 0
137 -15 -71 0
137 -16 -72 0
137 -17 -73 0
137 -18 -74 0
137 -19 -75 0
137 -20 -76 0
137 -21 -77 0
137 -22 -67 0
138 -12 -79 0
138 -13 -80 0
138 -14 -81 0
138 -15 -82 0
138 -16 -83 0
138 -17 -84 0
138 -18 -85 0
138 -19 -86 0
138 -20 -87 0
138 -21 -88 0
138 -22 -78 0
139 -12 -90 0
139 -13 -91 0
139 -14 -92 0
139 -15 -93 0
139 -16 -94 0
139 -17 -95 0
139 -18 -96 0
139 -19 -97 0
139 -20 -98 0
139 -21 -99 0
139 -22 -89 0
140 -12 -101 0
140 -13 -102 0
140 -14 -103 0
140 -15 -104 0
140 -16 -105 0
140 -17 -106 0
140 -18 -107 0
140 -19 -108 0
140 -20 -109 0
140 -21 -110 0
140 -22 -100 0
141 -12 -112 0
141 -13 -113 0
141 -14 -114 0
141 -15 -115 0
141 -16 -116 0
141 -17 -117 0
141 -18 -118 0
141 -19 -119 0
141 -20 -120 0
141 -21 -121 0
141 -22 -111 0
142 -23 -2 0
142 -24 -3 0
142 -25 -4 0
142 -26 -5 0
142 -27 -6 0
142 -28 -7 0
142 -29 -8 0
142 -30 -9 0
142 -31 -10 0
142 -32 -11 0
142 -33 -1 0
143 -23 -13 0
143 -24 -14 0
143 -25 -15 0
143 -26 -16 0
143 -27 -17 0
143 -28 -18 0
143 -29 -19 0
143 -30 -20 0
143 -31 -21 0
143 -32 -22 0
143 -33 -12 0
144 -23 -35 0
144 -24 -36 0
144 -25 -37 0
144 -26 -38 0
144 -27 -39 0
144 -28 -40 0
144 -29 -41 0
144 -30 -42 0
144 -31 -43 0
144 -32 -44 0
144 -33 -34 0
145 -23 -46 0
145 -24 -47 0
145 -25 -48 0
145 -26 -49 0
145 -27 -50 0
145 -28 -51 0
145 -29 -52 0
145 -30 -53 0
145 -31 -54 0
145 -32 -55 0
145 -33 -45 0
146 -23 -57 0
146 -24 -58 0
146 -25 -59 0
146 -26 -60 0
146 -27 -61 0
146 -28 -62 0
146 -29 -63 0
146 -30 -64 0
146 -31 -65 0
146 -32 -66 0
146 -33 -56 0
147 -23 -68 0
147 -24 -69 0
147 -25 -70 0
147 -26 -71 0
147 -27 -72 0
147 -28 -73 0
147 -29 -74 0
147 -30 -75 0
147 -31 -76 0
147 -32 -77 0
147 -33 -67 0
148 -23 -79 0
148 -24 -80 0
148 -25 -81 0
148 -26 -82 0
148 -27 -83 0
148 -28 -84 0
148 -29 -85 0
148 -30 -86 0
148 -31 -87 0
148 -32 -88 0
148 -33 -78 0
149 -23 -90 0
149 -24 -91 0
149 -25 -92 0
149 -26 -93 0
149 -27 -94 0
149 -28 -95 0
149 -29 -96 0
149 -30 -97 0
149 -31 -98 0
149 -32 -99 0
149 -33 -89 0
150 -23 -101 0
150 -24 -102 0
150 -25 -103 0
150 -26 -104 0
150 -27 -105 0
150 -28 -106 0
150 -29 -107 0
150 -30 -108 0
150 -31 -109 0
150 -32 -110 0
150 -33 -100 0
151 -23 -112 0
151 -24 -113 0
151 -25 -114 0
151 -26 -115 0
151 -27 -116 0
151 -28 -117 0
151 -29 -118 0
151 -30 -119 0
151 -31 -120 0
151 -32 -121 0
151 -33 -111 0
152 -34 -2 0
152 -35 -3 0
152 -36 -4 0
152 -37 -5 0
152 -38 -6 0
152 -39 -7 0
152 -40 -8 0
152 -41 -9 0
152 -42 -10 0
152 -43 -11 0
152 -44 -1 0
153 -34 -13 0
153 -35 -14 0
153 -36 -15 0
153 -37 -16 0
153 -38 -17 0
153 -39 -18 0
153 -40 -19 0
153 -41 -20 0
153 -42 -21 0
153 -43 -22 0
153 -44 -12 0
154 -34 -24 0
154 -35 -25 0
154 -36 -26 0
154 -37 -27 0
154 -38 -28 0
154 -39 -29 0
154 -40 -30 0
154 -41 -31 0
154 -42 -32 0
154 -43 -33 0
154 -44 -23 0
155 -34 -46 0
155 -35 -47 0
155 -36 -48 0
155 -37 -49 0
155 -38 -50 0
155 -39 -51 0
155 -40 -52 0
155 -41 -53 0
155 -42 -54 0
155 -43 -55 0
155 -44 -45 0
156 -34 -57 0
156 -35 -58 0
156 -36 -59 0
156 -37 -60 0
156 -38 -61 0
156 -39 -62 0
156 -40 -63 0
156 -41 -64 0
156 -42 -65 0
156 -43 -66 0
156 -44 -56 0
157 -34 -68 0
157 -35 -69 0
157 -36 -70 0
157 -37 -71 0
157 -38 -72 0
157 -39 -73 0
157 -40 -74 0
157 -41 -75 0
157 -42 -76 0
157 -43 -77 0
157 -44 -67 0
158 -34 -79 0
158 -35 -80 0
158 -36 -81 0
158 -37 -82 0
158 -38 -83 0
158 -39 -84 0
158 -40 -85 0
158 -41 -86 0
158 -42 -87 0
158 -43 -88 0
158 -44 -78 0
159 -34 -90 0
159 -35 -91 0
159 -36 -92 0
159 -37 -93 0
159 -38 -94 0
159 -39 -95 0
159 -40 -96 0
159 -41 -97 0
159 -42 -98 0
159 -43 -99 0
159 -44 -89 0
160 -34 -101 0
160 -35 -102 0
160 -36 -103 0
160 -37 -104 0
160 -38 -105 0
160 -39 -106 0
160 -40 -107 0
160 -41 -108 0
160 -42 -109 0
160 -43 -110 0
160 -44 -100 0
161 -34 -112 0
161 -35 -113 0
161 -36 -114 0
161 -37 -115 0
161 -38 -116 0
161 -39 -117 0
161 -40 -118 0
161 -41 -119 0
161 -42 -120 0
161 -43 -121 0
161 -44 -111 0
162 -45 -2 0
162 -46 -3 0
162 -47 -4 0
162 -48 -5 0
162 -49 -6 0
162 -50 -7 0
162 -51 -8 0
162 -52 -9 0
162 -53 -10 0
162 -54 -11 0
162 -55 -1 0
163 -45 -13 0
163 -46 -14 0
163 -47 -15 0
163 -48 -16 0
163 -49 -17 0
163 -50 -18 0
163 -51 -19 0
163 -52 -20 0
163 -53 -21 0
163 -54 -22 0
163 -55 -12 0
164 -45 -24 0
164 -46 -25 0
164 -47 -26 0
164 -48 -27 0
164 -49 -28 0
164 -50 -29 0
164 -51 -30 0
164 -52 -31 0
164 -53 -32 0
164 -54 -33 0
164 -55 -23 0
165 -45 -35 0
165 -46 -36 0
165 -47 -37 0
165 -48 -38 0
165 -49 -39 0
165 -50 -40 0
165 -51 -41 0
165 -52 -42 0
165 -53 -43 0
165 -54 -44 0
165 -55 -34 0
166 -45 -57 0
166 -46 -58 0
166 -47 -59 0
166 -48 -60 0
166 -49 -61 0
166 -50 -62 0
166 -51 -63 0
166 -52 -64 0
166 -53 -65 0
166 -54 -66 0
166 -55 -56 0
167 -45 -68 0
167 -46 -69 0
167 -47 -70 0
167 -48 -71 0
167 -49 -72 0
167 -50 -73 0
167 -51 -74 0
167 -52 -75 0
167 -53 -76 0
167 -54 -77 0
167 -55 -67 0
168 -45 -79 0
168 -46 -80 0
168 -47 -81 0
168 -48 -82 0
168 -49 -83 0
168 -50 -84 0
168 -51 -85 0
168 -52 -86 0
168 -53 -87 0
168 -54 -88 0
168 -55 -78 0
169 -45 -90 0
169 -46 -91 0
169 -47 -92 0
169 -48 -93 0
169 -49 -94 0
169 -50 -95 0
169 -51 -96 0
169 -52 -97 0
169 -53 -98 0
169 -54 -99 0
169 -55 -89 0
170 -45 -101 0
170 -46 -102 0
170 -47 -103 0
170 -48 -104 0
170 -49 -105 0
170 -50 -106 0
170 -51 -107 0
170 -52 -108 0
170 -53 -109 0
170 -54 -110 0
170 -55 -100 0
171 -45 -112 0
171 -46 -113 0
171 -47 -114 0
171 -48 -115 0
171 -49 -116 0
171 -50 -117 0
171 -51 -118 0
171 -52 -119 0
171 -53 -120 0
171 -54 -121 0
171 -55 -111 0
172 -56 -2 0
172 -57 -3 0
172 -58 -4 0
172 -59 -5 0
172 -60 -6 0
172 -61 -7 0
172 -62 -8 0
172 -63 -9 0
172 -64 -10 0
172 -65 -11 0
172 -66 -1 0
173 -56 -13 0
173 -57 -14 0
173 -58 -15 0
173 -59 -16 0
173 -60 -17 0
173 -61 -18 0
173 -62 -19 0
173 -63 -20 0
173 -64 -21 0
173 -65 -22 0
173 -66 -12 0
174 -56 -24 0
174 -57 -25 0
174 -58 -26 0
174 -59 -27 0
174 -60 -28 0
174 -61 -29 0
174 -62 -30 0
174 -63 -31 0
174 -64 -32 0
174 -65 -33 0
174 -66 -23 0
175 -56 -35 0
175 -57 -36 0
175 -58 -37 0
175 -59 -38 0
175 -60 -39 0
175 -61 -40 0
175 -62 -41 0
175 -63 -42 0
175 -64 -43 0
175 -65 -44 0
175 -66 -34 0
176 -56 -46 0
176 -57 -47 0
176 -58 -48 0
176 -59 -49 0
176 -60 -50 0
176 -61 -51 0
176 -62 -52 0
176 -63 -53 0
176 -64 -54 0
176 -65 -55 0
176 -66 -45 0
177 -56 -68 0
177 -57 -69 0
177 -58 -70 0
177 -59 -71 0
177 -60 -72 0
177 -61 -73 0
177 -62 -74 0
177 -63 -75 0
177 -64 -76 0
177 -65 -77 0
177 -66 -67 0
178 -56 -79 0
178 -57 -80 0
178 -58 -81 0
178 -59 -82 0
178 -60 -83 0
178 -61 -84 0
178 -62 -85 0
178 -63 -86 0
178 -64 -87 0
178 -65 -88 0
178 -66 -78 0
179 -56 -90 0
179 -57 -91 0
179 -58 -92 0
179 -59 -93 0
179 -60 -94 0
179 -61 -95 0
179 -62 -96 0
179 -63 -97 0
179 -64 -98 0
179 -65 -99 0
179 -66 -89 0
180 -56 -101 0
180 -57 -102 0
180 -58 -103 0
180 -59 -104 0
180 -60 -105 0
180 -61 -106 0
180 -62 -107 0
180 -63 -108 0
180 -64 -109 0
180 -65 -110 0
180 -66 -100 0
181 -56 -112 0
181 -57 -113 0
181 -58 -114 0
181 -59 -115 0
181 -60 -116 0
181 -61 -117 0
181 -62 -118 0
181 -63 -119 0
181 -64 -120 0
181 -65 -121 0
181 -66 -111 0
182 -67 -2 0
182 -68 -3 0
182 -69 -4 0
182 -70 -5 0
182 -71 -6 0
182 -72 -7 0
182 -73 -8 0
182 -74 -9 0
182 -75 -10 0
182 -76 -11 0
182 -77 -1 0
183 -67 -13 0
183 -68 -14 0
183 -69 -15 0
183 -70 -16 0
183 -71 -17 0
183 -72 -18 0
183 -73 -19 0
183 -74 -20 0
183 -75 -21 0
183 -76 -22 0
183 -77 -12 0
184 -67 -24 0
184 -68 -25 0
184 -69 -26 0
184 -70 -27 0
184 -71 -28 0
184 -72 -29 0
184 -73 -30 0
184 -74 -31 0
184 -75 -32 0
184 -76 -33 0
184 -77 -23 0
185 -67 -35 0
185 -68 -36 0
185 -69 -37 0
185 -70 -38 0
185 -71 -39 0
185 -72 -40 0
185 -73 -41 0
185 -74 -42 0
185 -75 -43 0
185 -76 -44 0
185 -77 -34 0
186 -67 -46 0
186 -68 -47 0
186 -69 -48 0
186 -70 -49 0
186 -71 -50 0
186 -72 -51 0
186 -73 -52 0
186 -74 -53 0
186 -75 -54 0
186 -76 -55 0
186 -77 -45 0
187 -67 -57 0
187 -68 -58 0
187 -69 -59 0
187 -70 -60 0
187 -71 -61 0
187 -72 -62 0
187 -73 -63 0
187 -74 -64 0
187 -75 -65 0
187 -76 -66 0
187 -77 -56 0
188 -67 -79 0
188 -68 -80 0
188 -69 -81 0
188 -70 -82 0
188 -71 -83 0
188 -72 -84 0
188 -73 -85 0
188 -74 -86 0
188 -75 -87 0
188 -76 -88 0
188 -77 -78 0
189 -67 -90 0
189 -68 -91 0
189 -69 -92 0
189 -70 -93 0
189 -71 -94 0
189 -72 -95 0
189 -73 -96 0
189 -74 -97 0
189 -75 -98 0
189 -76 -99 0
189 -77 -89 0
190 -67 -101 0
190 -68 -102 0
190 -69 -103 0
190 -70 -104 0
190 -71 -105 0
190 -72 -106 0
190 -73 -107 0
190 -74 -108 0
190 -75 -109 0
190 -76 -110 0
190 -77 -100 0
191 -67 -112 0
191 -68 -113 0
191 -69 -114 0
191 -70 -115 0
191 -71 -116 0
191 -72 -117 0
191 -73 -118 0
191 -74 -119 0
191 -75 -120 0
191 -76 -121 0
191 -77 -111 0
192 -78 -2 0
192 -79 -3 0
192 -80 -4 0
192 -81 -5 0
192 -82 -6 0
192 -83 -7 0
192 -84 -8 0
192 -85 -9 0
192 -86 -10 0
192 -87 -11 0
192 -88 -1 0
193 -78 -13 0
193 -79 -14 0
193 -80 -15 0
193 -81 -16 0
193 -82 -17 0
193 -83 -18 0
193 -84 -19 0
193 -85 -20 0
193 -86 -21 0
193 -87 -22 0
193 -88 -12 0
194 -78 -24 0
194 -79 -25 0
194 -80 -26 0
194 -81 -27 0
194 -82 -28 0
194 -83 -29 0
194 -84 -30 0
194 -85 -31 0
194 -86 -32 0
194 -87 -33 0
194 -88 -23 0
195 -78 -35 0
195 -79 -36 0
195 -80 -37 0
195 -81 -38 0
195 -82 -39 0
195 -83 -40 0
195 -84 -41 0
195 -85 -42 0
195 -86 -43 0
195 -87 -44 0
195 -88 -34 0
196 -78 -46 0
196 -79 -47 0
196 -80 -48 0
196 -81 -49 0
196 -82 -50 0
196 -83 -51 0
196 -84 -52 0
196 -85 -53 0
196 -86 -54 0
196 -87 -55 0
196 -88 -45 0
197 -78 -57 0
197 -79 -58 0
197 -80 -59 0
197 -81 -60 0
197 -82 -61 0
197 -83 -62 0
197 -84 -63 0
197 -85 -64 0
197 -86 -65 0
197 -87 -66 0
197 -88 -56 0
198 -78 -68 0
198 -79 -69 0
198 -80 -70 0
198 -81 -71 0
198 -82 -72 0
198 -83 -73 0
198 -84 -74 0
198 -85 -75 0
198 -86 -76 0
198 -87 -77 0
198 -88 -67 0
199 -78 -90 0
199 -79 -91 0
199 -80 -92 0
199 -81 -93 0
199 -82 -94 0
199 -83 -95 0
199 -84 -96 0
199 -85 -97 0
199 -86 -98 0
199 -87 -99 0
199 -88 -89 0
200 -78 -101 0
200 -79 -102 0
200 -80 -103 0
200 -81 -104 0
200 -82 -105 0
200 -83 -106 0
200 -84 -107 0
200 -85 -108 0
200 -86 -109 0
200 -87 -110 0
200 -88 -100 0
201 -78 -112 0
201 -79 -113 0
201 -80 -114 0
201 -81 -115 0
201 -82 -116 0
201 -83 -117 0
201 -84 -118 0
201 -85 -119 0
201 -86 -120 0
201 -87 -121 0
201 -88 -111 0
202 -89 -2 0
202 -90 -3 0
202 -91 -4 0
202 -92 -5 0
202 -93 -6 0
202 -94 -7 0
202 -95 -8 0
202 -96 -9 0
202 -97 -10 0
202 -98 -11 0
202 -99 -1 0
203 -89 -13 0
203 -90 -14 0
203 -91 -15 0
203 -92 -16 0
203 -93 -17 0
203 -94 -18 0
203 -95 -19 0
203 -96 -20 0
203 -97 -21 0
203 -98 -22 0
203 -99 -12 0
204 -89 -24 0
204 -90 -25 0
204 -91 -26 0
204 -92 -27 0
204 -93 -28 0
204 -94 -29 0
204 -95 -30 0
204 -96 -31 0
204 -97 -32 0
204 -98 -33 0
204 -99 -23 0
205 -89 -35 0
205 -90 -36 0
205 -91 -37 0
205 -92 -38 0
205 -93 -39 0
205 -94 -40 0
205 -95 -41 0
205 -96 -42 0
205 -97 -43 0
205 -98 -44 0
205 -99 -34 0
206 -89 -46 0
206 -90 -47 0
206 -91 -48 0
206 -92 -49 0
206 -93 -50 0
206 -94 -51 0
206 -95 -52 0
206 -96 -53 0
206 -97 -54 0
206 -98 -55 0
206 -99 -45 0
207 -89 -57 0
207 -90 -58 0
207 -91 -59 0
207 -92 -60 0
207 -93 -61 0
207 -94 -62 0
207 -95 -63 0
207 -96 -64 0
207 -97 -65 0
207 -98 -66 0
207 -99 -56 0
208 -89 -68 0
208 -90 -69 0
208 -91 -70 0
208 -92 -71 0
208 -93 -72 0
208 -94 -73 0
208 -95 -74 0
208 -96 -75 0
208 -97 -76 0
208 -98 -77 0
208 -99 -67 0
209 -89 -79 0
209 -90 -80 0
209 -91 -81 0
209 -92 -82 0
209 -93 -83 0
209 -94 -84 0
209 -95 -85 0
209 -96 -86 0
209 -97 -87 0
209 -98 -88 0
209 -99 -78 0
210 -89 -101 0
210 -90 -102 0
210 -91 -103 0
210 -92 -104 0
210 -93 -105 0
210 -94 -106 0
210 -95 -107 0
210 -96 -108 0
210 -97 -109 0
210 -98 -110 0
210 -99 -100 0
211 -89 -112 0
211 -90 -113 0
211 -91 -114 0
211 -92 -115 0
211 -93 -116 0
211 -94 -117 0
211 -95 -118 0
211 -96 -119 0
211 -97 -120 0
211 -98 -121 0
211 -99 -111 0
212 -100 -2 0
212 -101 -3 0
212 -102 -4 0
212 -103 -5 0
212 -104 -6 0
212 -105 -7 0
212 -106 -8 0
212 -107 -9 0
212 -108 -10 0
212 -109 -11 0
212 -110 -1 0
213 -100 -13 0
213 -101 -14 0
213 -102 -15 0
213 -103 -16 0
213 -104 -17 0
213 -105 -18 0
213 -106 -19 0
213 -107 -20 0
213 -108 -21 0
213 -109 -22 0
213 -110 -12 0
214 -100 -24 0
214 -101 -25 0
214 -102 -26 0
214 -103 -27 0
214 -104 -28 0
214 -105 -29 0
214 -106 -30 0
214 -107 -31 0
214 -108 -32 0
214 -109 -33 0
214 -110 -23 0
215 -100 -35 0
215 -101 -36 0
215 -102 -37 0
215 -103 -38 0
215 -104 -39 0
215 -105 -40 0
215 -106 -41 0
215 -107 -42 0
215 -108 -43 0
215 -109 -44 0
215 -110 -34 0
216 -100 -46 0
216 -101 -47 0
216 -102 -48 0
216 -103 -49 0
216 -104 -50 0
216 -105 -51 0
216 -106 -52 0
216 -107 -53 0
216 -108 -54 0
216 -109 -55 0
216 -110 -45 0
217 -100 -57 0
217 -101 -58 0
217 -102 -59 0
217 -103 -60 0
217 -104 -61 0
217 -105 -62 0
217 -106 -63 0
217 -107 -64 0
217 -108 -65 0
217 -109 -66 0
217 -110 -56 0
218 -100 -68 0
218 -101 -69 0
218 -102 -70 0
218 -103 -71 0
218 -104 -72 0
218 -105 -73 0
218 -106 -74 0
218 -107 -75 0
218 -108 -76 0
218 -109 -77 0
218 -110 -67 0
219 -100 -79 0
219 -101 -80 0
219 -102 -81 0
219 -103 -82 0
219 -104 -83 0
219 -105 -84 0
219 -106 -85 0
219 -107 -86 0
219 -108 -87 0
219 -109 -88 0
219 -110 -78 0
220 -100 -90 0
220 -101 -91 0
220 -102 -92 0
220 -103 -93 0
220 -104 -94 0
220 -105 -95 0
220 -106 -96 0
220 -107 -97 0
220 -108 -98 0
220 -109 -99 0
220 -110 -89 0
221 -100 -112 0
221 -101 -113 0
221 -102 -114 0
221 -103 -115 0
221 -104 -116 0
221 -105 -117 0
221 -106 -118 0
221 -107 -119 0
221 -108 -120 0
221 -109 -121 0
221 -110 -111 0
222 -111 -2 0
222 -112 -3 0
222 -113 -4 0
222 -114 -5 0
222 -115 -6 0
222 -116 -7 0
222 -117 -8 0
222 -118 -9 0
222 -119 -10 0
222 -120 -11 0
222 -121 -1 0
223 -111 -13 0
223 -112 -14 0
223 -113 -15 0
223 -114 -16 0
223 -115 -17 0
223 -116 -18 0
223 -117 -19 0
223 -118 -20 0
223 -119 -21 0
223 -120 -22 0
223 -121 -12 0
224 -111 -24 0
224 -112 -25 0
224 -113 -26 0
224 -114 -27 0
224 -115 -28 0
224 -116 -29 0
224 -117 -30 0
224 -118 -31 0
224 -119 -32 0
224 -120 -33 0
224 -121 -23 0
225 -111 -35 0
225 -112 -36 0
225 -113 -37 0
225 -114 -38 0
225 -115 -39 0
225 -116 -40 0
225 -117 -41 0
225 -118 -42 0
225 -119 -43 0
225 -120 -44 0
225 -121 -34 0
226 -111 -46 0
226 -112 -47 0
226 -113 -48 0
226 -114 -49 0
226 -115 -50 0
226 -116 -51 0
226 -117 -52 0
226 -118 -53 0
226 -119 -54 0
226 -120 -55 0
226 -121 -45 0
227 -111 -57 0
227 -112 -58 0
227 -113 -59 0
227 -114 -60 0
227 -115 -61 0
227 -116 -62 0
227 -117 -63 0
227 -118 -64 0
227 -119 -65 0
227 -120 -66 0
227 -121 -56 0
228 -111 -68 0
228 -112 -69 0
228 -113 -70 0
228 -114 -71 0
228 -115 -72 0
228 -116 -73 0
228 -117 -74 0
228 -118 -75 0
228 -119 -76 0
228 -120 -77 0
228 -121 -67 0
229 -111 -79 0
229 -112 -80 0
229 -113 -81 0
229 -114 -82 0
229 -115 -83 0
229 -116 -84 0
229 -117 -85 0
229 -118 -86 0
229 -119 -87 0
229 -120 -88 0
229 -121 -78 0
230 -111 -90 0
230 -112 -91 0
230 -113 -92 0
230 -114 -93 0
230 -115 -94 0
230 -116 -95 0
230 -117 -96 0
230 -118 -97 0
230 -119 -98 0
230 -120 -99 0
230 -121 -89 0
231 -111 -101 0
231 -112 -102 0
231 -113 -103 0
231 -114 -104 0
231 -115 -105 0
231 -116 -106 0
231 -117 -107 0
231 -118 -108 0
231 -119 -109 0
231 -120 -110 0
231 -121 -100 0
-122 0
-123 0
-124 0
-125 0
-126 0
127 0
-128 0
-129 0
-130 0
131 0
132 0
133 0
-134 0
135 0
-136 0
-137 0
-138 0
-139 0
-140 0
-141 0
-142 0
143 0
144 0
-145 0
-146 0
147 0
-148 0
-149 0
-150 0
-151 0
-152 0
-153 0
-154 0
-155 0
156 0
-157 0
158 0
159 0
-160 0
-161 0
-162 0
-163 0
-164 0
165 0
-166 0
-167 0
168 0
-169 0
170 0
-171 0
172 0
-173 0
174 0
-175 0
-176 0
-177 0
-178 0
-179 0
-180 0
181 0
-182 0
-183 0
-184 0
-185 0
-186 0
187 0
-188 0
189 0
-190 0
191 0
192 0
-193 0
-194 0
-195 0
196 0
-197 0
198 0
-199 0
-200 0
-201 0
202 0
-203 0
-204 0
205 0
-206 0
-207 0
-208 0
-209 0
-210 0
211 0
-212 0
-213 0
-214 0
-215 0
-216 0
-217 0
-218 0
219 0
-220 0
221 0
-222 0
-223 0
-224 0
225 0
-226 0
-227 0
-228 0
229 0
-230 0
231 0
